c preprocessed version of celar08, 76 vertices, 421 edges
p td 76 421
1 0
25 0
17 0
26 0
1 2
1 67
66 1
25 1
40 1
2 3
7 2
35 2
2 41
2 45
2 46
2 37
2 54
2 36
2 52
2 43
2 39
2 49
2 38
2 69
2 55
59 2
60 2
66 2
67 2
31 2
47 2
53 2
40 2
57 2
68 2
4 3
8 3
9 3
7 3
3 32
3 41
33 3
3 45
3 46
3 48
31 3
47 3
68 3
4 5
4 8
4 7
4 35
4 41
4 42
4 43
4 34
4 33
4 46
4 45
4 44
4 48
4 54
4 50
4 51
4 52
4 36
4 49
4 55
4 56
6 4
31 4
47 4
53 4
40 4
57 4
68 4
5 6
5 21
20 5
6 7
6 32
59 6
60 6
58 6
61 6
8 7
7 32
42 7
33 7
7 41
7 45
7 54
7 50
7 49
7 51
7 55
7 56
7 46
7 48
59 7
60 7
53 7
40 7
58 7
61 7
57 7
9 8
35 8
8 33
8 46
8 48
8 49
8 56
8 43
8 34
8 44
31 8
47 8
40 8
9 10
9 33
9 32
9 48
30 9
63 9
11 10
10 12
10 13
14 10
11 12
11 13
11 14
11 22
11 23
11 24
12 13
21 12
22 12
23 12
14 13
28 13
15 14
14 28
27 14
15 16
15 28
15 26
15 27
29 15
16 17
27 16
16 26
29 16
17 18
17 25
26 17
19 18
25 18
20 19
20 21
21 22
21 23
22 23
24 22
24 23
27 26
29 26
27 28
29 27
30 29
63 29
62 29
68 29
30 31
30 47
30 64
30 65
30 62
30 63
68 30
31 32
31 38
31 41
31 45
31 46
31 44
31 48
31 47
53 31
40 31
63 31
33 32
35 32
42 32
43 32
41 32
46 32
45 32
48 32
54 32
50 32
49 32
32 69
32 55
32 56
59 32
60 32
47 32
53 32
40 32
58 32
61 32
57 32
33 34
33 46
33 48
33 44
40 33
35 34
41 34
42 34
43 34
52 34
45 34
48 34
51 34
50 34
34 44
53 34
40 34
57 34
35 36
35 42
35 54
35 52
35 43
35 50
35 49
35 38
35 55
35 56
35 44
53 35
40 35
57 35
37 36
36 43
36 38
36 39
67 36
59 36
40 36
37 38
37 39
67 37
40 37
57 37
68 37
39 38
38 69
67 38
47 38
40 38
40 39
64 39
65 39
59 39
60 39
66 39
67 39
40 41
40 42
40 43
40 44
40 45
40 46
40 47
40 48
40 49
40 50
40 51
40 52
53 40
40 54
40 55
40 56
40 67
40 59
40 60
40 57
40 58
40 61
68 40
42 41
41 45
41 46
41 44
41 49
47 41
53 41
57 41
42 43
42 45
42 54
42 50
42 49
42 55
42 56
42 52
42 51
42 44
53 42
57 42
43 44
52 43
53 43
45 44
47 44
48 44
52 44
51 44
53 44
57 44
45 46
47 45
45 49
53 45
57 45
47 46
46 48
47 48
53 47
63 47
48 49
54 48
48 55
50 49
54 49
49 55
49 56
53 49
50 51
54 50
50 55
50 56
53 50
57 50
52 51
53 51
57 51
53 52
57 52
53 54
53 55
53 56
53 57
53 58
53 61
54 55
54 56
55 56
58 57
57 69
61 57
68 57
58 59
58 60
58 61
59 60
61 59
62 59
61 60
62 60
63 62
62 68
63 64
63 65
68 63
64 65
66 64
68 64
66 65
68 65
66 67
68 69
70 75
70 71
70 18
70 72
70 19
70 73
70 74
71 75
71 18
71 72
71 19
71 73
71 74
72 75
72 19
72 73
72 74
72 20
73 75
73 19
73 74
73 20
74 75
74 11
74 19
74 18
74 25
74 17
74 16
74 13
74 24
74 28
74 27
74 20
75 11
75 24
